0
Node Left Objective IInf Best_Integer Best_Bound ItCnt Gap
0+ 0 nan nan 136.4723 0.0000 nan 100.00%
0+ 0 nan nan 99.1655 0.0000 nan 100.00%
0 0 0.0000 28 99.1655 0.0000 111 100.00%
0+ 0 nan nan 89.4344 0.0000 nan 100.00%
0+ 0 nan nan 84.2873 0.0000 nan 100.00%
0+ 0 nan nan 83.4786 0.0000 nan 100.00%
0 2 0.0000 26 83.4786 0.0000 111 100.00%
CPXPARAM_MIP_Cuts_Disjunctive 0
1
Node Left Objective IInf Best_Integer Best_Bound ItCnt Gap
0+ 0 nan nan 136.4723 0.0000 nan 100.00%
0+ 0 nan nan 99.1655 0.0000 nan 100.00%
0 0 0.0000 31 99.1655 0.0000 106 100.00%
0+ 0 nan nan 74.7431 0.0000 nan 100.00%
0+ 0 nan nan 73.5517 0.0000 nan 100.00%
0+ 0 nan nan 67.5650 0.0000 nan 100.00%
0+ 0 nan nan 53.6447 0.0000 nan 100.00%
0 2 0.0000 18 53.6447 0.0000 106 100.00%
CPXPARAM_MIP_Cuts_Disjunctive 0
2
Node Left Objective IInf Best_Integer Best_Bound ItCnt Gap
0+ 0 nan nan 136.4723 0.0000 nan 100.00%
0+ 0 nan nan 69.8576 0.0000 nan 100.00%
0 0 0.0000 23 69.8576 0.0000 113 100.00%
0+ 0 nan nan 68.3427 0.0000 nan 100.00%
0 2 0.0000 20 68.3427 0.0000 113 100.00%
CPXPARAM_MIP_Cuts_Disjunctive 0
3
Node Left Objective IInf Best_Integer Best_Bound ItCnt Gap
0+ 0 nan nan 136.4723 0.0000 nan 100.00%
0 0 0.0000 28 136.4723 0.0000 97 100.00%
0+ 0 nan nan 39.4022 0.0000 nan 100.00%
0+ 0 nan nan 38.0536 0.0000 nan 100.00%
0+ 0 nan nan 26.3184 0.0000 nan 100.00%
0 2 0.0000 13 26.3184 0.0000 97 100.00%
CPXPARAM_MIP_Cuts_Disjunctive 0
4
Node Left Objective IInf Best_Integer Best_Bound ItCnt Gap
0+ 0 nan nan 115.1924 0.0000 nan 100.00%
0+ 0 nan nan 108.1598 0.0000 nan 100.00%
0 0 0.0000 27 108.1598 0.0000 113 100.00%
0+ 0 nan nan 104.3379 0.0000 nan 100.00%
0 0 0.0000 26 104.3379 Disjcuts:3 129 100.00%
0+ 0 nan nan 86.5783 0.0000 nan 100.00%
0 0 0.0000 27 86.5783 Disjcuts:18 181 100.00%
0 0 0.0000 25 86.5783 Disjcuts:6 196 100.00%
0+ 0 nan nan 76.0506 0.0000 nan 100.00%
0 2 0.0000 25 76.0506 0.0000 196 100.00%
CPXPARAM_MIP_Cuts_Disjunctive 7
5
Node Left Objective IInf Best_Integer Best_Bound ItCnt Gap
0+ 0 nan nan 115.1924 0.0000 nan 100.00%
0+ 0 nan nan 108.1598 0.0000 nan 100.00%
0 0 0.0000 30 108.1598 0.0000 101 100.00%
0+ 0 nan nan 67.1398 0.0000 nan 100.00%
0+ 0 nan nan 51.4818 0.0000 nan 100.00%
0+ 0 nan nan 32.9566 0.0000 nan 100.00%
0 2 0.0000 19 32.9566 0.0000 101 100.00%
CPXPARAM_MIP_Cuts_Disjunctive 0
6
Node Left Objective IInf Best_Integer Best_Bound ItCnt Gap
0+ 0 nan nan 115.1924 0.0000 nan 100.00%
0+ 0 nan nan 81.9438 0.0000 nan 100.00%
0 0 0.0000 24 81.9438 0.0000 119 100.00%
0 0 0.0000 20 81.9438 Disjcuts:4 153 100.00%
0+ 0 nan nan 76.8972 0.0000 nan 100.00%
0 0 0.0000 20 76.8972 Disjcuts:14 169 100.00%
0 0 0.0000 20 76.8972 Disjcuts:11 198 100.00%
0+ 0 nan nan 57.0193 0.0000 nan 100.00%
0 2 0.0000 20 57.0193 0.0000 198 100.00%
CPXPARAM_MIP_Cuts_Disjunctive 5
7
Node Left Objective IInf Best_Integer Best_Bound ItCnt Gap
0+ 0 nan nan 115.1924 0.0000 nan 100.00%
0 0 0.0000 30 115.1924 0.0000 95 100.00%
0+ 0 nan nan 56.4052 0.0000 nan 100.00%
0+ 0 nan nan 43.2799 0.0000 nan 100.00%
0+ 0 nan nan 33.9395 0.0000 nan 100.00%
0 2 0.0000 13 33.9395 0.0000 95 100.00%
CPXPARAM_MIP_Cuts_Disjunctive 0
8
Node Left Objective IInf Best_Integer Best_Bound ItCnt Gap
0+ 0 nan nan 131.6037 0.0000 nan 100.00%
0+ 0 nan nan 111.2422 0.0000 nan 100.00%
0 0 0.0000 28 111.2422 0.0000 113 100.00%
0 0 0.0000 25 111.2422 Disjcuts:1 119 100.00%
0 0 0.0000 26 111.2422 Disjcuts:18 159 100.00%
0 0 0.0000 26 111.2422 Disjcuts:6 201 100.00%
0+ 0 nan nan 102.1199 0.0000 nan 100.00%
0+ 0 nan nan 99.2656 0.0000 nan 100.00%
0+ 0 nan nan 91.3814 0.0000 nan 100.00%
0 2 0.0000 26 91.3814 0.0000 201 100.00%
CPXPARAM_MIP_Cuts_Disjunctive 5
9
Node Left Objective IInf Best_Integer Best_Bound ItCnt Gap
0+ 0 nan nan 131.6037 0.0000 nan 100.00%
0 0 0.0000 27 131.6037 0.0000 90 100.00%
0+ 0 nan nan 78.9542 0.0000 nan 100.00%
0+ 0 nan nan 72.9282 0.0000 nan 100.00%
0+ 0 nan nan 72.3116 0.0000 nan 100.00%
0+ 0 nan nan 57.8894 0.0000 nan 100.00%
0+ 0 nan nan 52.2569 0.0000 nan 100.00%
0 2 0.0000 19 52.2569 0.0000 90 100.00%
CPXPARAM_MIP_Cuts_Disjunctive 0
10
Node Left Objective IInf Best_Integer Best_Bound ItCnt Gap
0+ 0 nan nan 131.6037 0.0000 nan 100.00%
0+ 0 nan nan 99.6733 0.0000 nan 100.00%
0 0 0.0000 23 99.6733 0.0000 104 100.00%
0 0 0.0000 20 99.6733 Disjcuts:8 115 100.00%
0 0 0.0000 22 99.6733 Disjcuts:16 151 100.00%
0 0 0.0000 21 99.6733 Disjcuts:3 160 100.00%
0+ 0 nan nan 97.7431 0.0000 nan 100.00%
0+ 0 nan nan 90.7343 0.0000 nan 100.00%
0+ 0 nan nan 78.4585 0.0000 nan 100.00%
0 2 0.0000 20 78.4585 0.0000 160 100.00%
CPXPARAM_MIP_Cuts_Disjunctive 2
11
Node Left Objective IInf Best_Integer Best_Bound ItCnt Gap
0+ 0 nan nan 131.6037 0.0000 nan 100.00%
0 0 0.0000 27 131.6037 0.0000 91 100.00%
0+ 0 nan nan 80.8991 0.0000 nan 100.00%
0+ 0 nan nan 61.1346 0.0000 nan 100.00%
0+ 0 nan nan 59.5565 0.0000 nan 100.00%
0+ 0 nan nan 58.6083 0.0000 nan 100.00%
0+ 0 nan nan 50.1961 0.0000 nan 100.00%
0 2 0.0000 15 50.1961 0.0000 91 100.00%
CPXPARAM_MIP_Cuts_Disjunctive 0
12
Node Left Objective IInf Best_Integer Best_Bound ItCnt Gap
0+ 0 nan nan 110.3567 0.0000 nan 100.00%
0+ 0 nan nan 96.6816 0.0000 nan 100.00%
0 0 0.0000 28 96.6816 0.0000 120 100.00%
0+ 0 nan nan 90.9897 0.0000 nan 100.00%
0+ 0 nan nan 85.8097 0.0000 nan 100.00%
0 2 0.0000 25 85.8097 0.0000 120 100.00%
CPXPARAM_MIP_Cuts_Disjunctive 0
13
Node Left Objective IInf Best_Integer Best_Bound ItCnt Gap
0+ 0 nan nan 110.3567 0.0000 nan 100.00%
0 0 0.0000 29 110.3567 0.0000 95 100.00%
0+ 0 nan nan 73.5274 0.0000 nan 100.00%
0+ 0 nan nan 58.1615 0.0000 nan 100.00%
0 2 0.0000 19 58.1615 0.0000 95 100.00%
CPXPARAM_MIP_Cuts_Disjunctive 0
14
Node Left Objective IInf Best_Integer Best_Bound ItCnt Gap
0+ 0 nan nan 110.3567 0.0000 nan 100.00%
0+ 0 nan nan 82.1268 0.0000 nan 100.00%
0 0 0.0000 23 82.1268 0.0000 108 100.00%
0 0 0.0000 22 82.1268 Disjcuts:6 121 100.00%
0 0 0.0000 20 82.1268 Disjcuts:19 158 100.00%
0+ 0 nan nan 79.8881 0.0000 nan 100.00%
0 0 0.0000 20 79.8881 Disjcuts:10 188 100.00%
0 0 0.0000 22 79.8881 Disjcuts:12 198 100.00%
0+ 0 nan nan 75.1995 0.0000 nan 100.00%
0+ 0 nan nan 56.1987 0.0000 nan 100.00%
0 2 0.0000 20 56.1987 0.0000 198 100.00%
CPXPARAM_MIP_Cuts_Disjunctive 2
15
Node Left Objective IInf Best_Integer Best_Bound ItCnt Gap
0+ 0 nan nan 110.3567 0.0000 nan 100.00%
0 0 0.0000 30 110.3567 0.0000 91 100.00%
0+ 0 nan nan 60.8183 0.0000 nan 100.00%
0+ 0 nan nan 51.0672 0.0000 nan 100.00%
0+ 0 nan nan 40.5427 0.0000 nan 100.00%
0 2 0.0000 13 40.5427 0.0000 91 100.00%
CPXPARAM_MIP_Cuts_Disjunctive 0
16
Node Left Objective IInf Best_Integer Best_Bound ItCnt Gap
0+ 0 nan nan 109.2984 0.0000 nan 100.00%
0+ 0 nan nan 97.6971 0.0000 nan 100.00%
0 0 0.0000 29 97.6971 0.0000 108 100.00%
0 0 0.0000 25 97.6971 Disjcuts:7 127 100.00%
0 0 0.0000 26 97.6971 Disjcuts:15 174 100.00%
0 0 0.0000 26 97.6971 Disjcuts:10 210 100.00%
0+ 0 nan nan 87.1209 0.0000 nan 100.00%
0 2 0.0000 25 87.1209 0.0000 210 100.00%
CPXPARAM_MIP_Cuts_Disjunctive 0
17
Node Left Objective IInf Best_Integer Best_Bound ItCnt Gap
0+ 0 nan nan 109.2984 0.0000 nan 100.00%
0+ 0 nan nan 97.6971 0.0000 nan 100.00%
0 0 0.0000 28 97.6971 0.0000 90 100.00%
0+ 0 nan nan 86.4966 0.0000 nan 100.00%
0+ 0 nan nan 69.6270 0.0000 nan 100.00%
0+ 0 nan nan 67.3836 0.0000 nan 100.00%
0+ 0 nan nan 45.8824 0.0000 nan 100.00%
0 2 0.0000 19 45.8824 0.0000 90 100.00%
CPXPARAM_MIP_Cuts_Disjunctive 0
18
Node Left Objective IInf Best_Integer Best_Bound ItCnt Gap
0+ 0 nan nan 109.2984 0.0000 nan 100.00%
0+ 0 nan nan 86.6088 0.0000 nan 100.00%
0 0 0.0000 23 86.6088 0.0000 113 100.00%
0 0 0.0000 21 86.6088 Disjcuts:6 124 100.00%
0 0 0.0000 22 86.6088 Disjcuts:15 148 100.00%
0+ 0 nan nan 81.2585 0.0000 nan 100.00%
0+ 0 nan nan 77.1180 0.0000 nan 100.00%
0 2 0.0000 21 77.1180 0.0000 148 100.00%
CPXPARAM_MIP_Cuts_Disjunctive 1
19
Node Left Objective IInf Best_Integer Best_Bound ItCnt Gap
0+ 0 nan nan 109.2984 0.0000 nan 100.00%
0 0 0.0000 26 109.2984 0.0000 87 100.00%
0+ 0 nan nan 64.4883 0.0000 nan 100.00%
0+ 0 nan nan 56.0213 0.0000 nan 100.00%
0+ 0 nan nan 51.9445 0.0000 nan 100.00%
0 2 0.0000 13 51.9445 0.0000 87 100.00%
CPXPARAM_MIP_Cuts_Disjunctive 0
20
Node Left Objective IInf Best_Integer Best_Bound ItCnt Gap
0+ 0 nan nan 93.3792 0.0000 nan 100.00%
0+ 0 nan nan 84.6822 0.0000 nan 100.00%
0 0 0.0000 27 84.6822 0.0000 110 100.00%
0+ 0 nan nan 79.4096 0.0000 nan 100.00%
0 0 0.0000 27 79.4096 Disjcuts:8 123 100.00%
0+ 0 nan nan 67.6712 0.0000 nan 100.00%
0 0 0.0000 26 67.6712 Disjcuts:6 140 100.00%
0+ 0 nan nan 66.0828 0.0000 nan 100.00%
0+ 0 nan nan 60.2100 0.0000 nan 100.00%
0 2 0.0000 25 60.2100 0.0000 140 100.00%
CPXPARAM_MIP_Cuts_Disjunctive 3
21
Node Left Objective IInf Best_Integer Best_Bound ItCnt Gap
0+ 0 nan nan 93.3792 0.0000 nan 100.00%
0+ 0 nan nan 84.6822 0.0000 nan 100.00%
0 0 0.0000 31 84.6822 0.0000 99 100.00%
0+ 0 nan nan 48.4437 0.0000 nan 100.00%
0+ 0 nan nan 41.2947 0.0000 nan 100.00%
0+ 0 nan nan 35.5315 0.0000 nan 100.00%
0 2 0.0000 19 35.5315 0.0000 99 100.00%
CPXPARAM_MIP_Cuts_Disjunctive 0
22
Node Left Objective IInf Best_Integer Best_Bound ItCnt Gap
0+ 0 nan nan 93.3792 0.0000 nan 100.00%
0+ 0 nan nan 77.4137 0.0000 nan 100.00%
0 0 0.0000 23 77.4137 0.0000 115 100.00%
0+ 0 nan nan 59.6779 0.0000 nan 100.00%
0 0 0.0000 24 59.6779 Disjcuts:4 134 100.00%
0 0 0.0000 21 59.6779 Disjcuts:7 155 100.00%
0 0 0.0000 23 59.6779 Disjcuts:12 217 100.00%
0+ 0 nan nan 49.4770 0.0000 nan 100.00%
0+ 0 nan nan 41.5833 0.0000 nan 100.00%
0 2 0.0000 23 41.5833 0.0000 217 100.00%
CPXPARAM_MIP_Cuts_Disjunctive 7
23
Node Left Objective IInf Best_Integer Best_Bound ItCnt Gap
0+ 0 nan nan 93.3792 0.0000 nan 100.00%
0+ 0 nan nan 77.4137 0.0000 nan 100.00%
0 0 0.0000 26 77.4137 0.0000 103 100.00%
0+ 0 nan nan 20.9566 0.0000 nan 100.00%
0+ 0 nan nan 18.0298 0.0000 nan 100.00%
0+ 0 nan nan 17.8582 0.0000 nan 100.00%
0+ 0 nan nan 8.6955 0.0000 nan 100.00%
0 2 0.0000 14 8.6955 0.0000 103 100.00%
CPXPARAM_MIP_Cuts_Disjunctive 0
24
Node Left Objective IInf Best_Integer Best_Bound ItCnt Gap
0+ 0 nan nan 94.5045 0.0000 nan 100.00%
0+ 0 nan nan 83.7373 0.0000 nan 100.00%
0 0 0.0000 28 83.7373 0.0000 111 100.00%
0+ 0 nan nan 76.9365 0.0000 nan 100.00%
0 0 0.0000 26 76.9365 Disjcuts:7 138 100.00%
0+ 0 nan nan 75.3671 0.0000 nan 100.00%
0 0 0.0000 27 75.3671 Disjcuts:9 166 100.00%
0 0 0.0000 26 75.3671 Disjcuts:2 170 100.00%
0+ 0 nan nan 68.4661 0.0000 nan 100.00%
0+ 0 nan nan 58.8419 0.0000 nan 100.00%
0 2 0.0000 25 58.8419 0.0000 170 100.00%
CPXPARAM_MIP_Cuts_Disjunctive 3
25
Node Left Objective IInf Best_Integer Best_Bound ItCnt Gap
0+ 0 nan nan 94.5045 0.0000 nan 100.00%
0 0 0.0000 31 94.5045 0.0000 95 100.00%
0+ 0 nan nan 62.0483 0.0000 nan 100.00%
0+ 0 nan nan 53.8404 0.0000 nan 100.00%
0+ 0 nan nan 52.4296 0.0000 nan 100.00%
0+ 0 nan nan 44.3133 0.0000 nan 100.00%
0 2 0.0000 19 44.3133 0.0000 95 100.00%
CPXPARAM_MIP_Cuts_Disjunctive 0
26
Node Left Objective IInf Best_Integer Best_Bound ItCnt Gap
0+ 0 nan nan 94.5045 0.0000 nan 100.00%
0+ 0 nan nan 77.5045 0.0000 nan 100.00%
0 0 0.0000 25 77.5045 0.0000 112 100.00%
0+ 0 nan nan 70.0813 0.0000 nan 100.00%
0+ 0 nan nan 68.8610 0.0000 nan 100.00%
0+ 0 nan nan 66.2997 0.0000 nan 100.00%
0+ 0 nan nan 48.1727 0.0000 nan 100.00%
0 2 0.0000 24 48.1727 0.0000 112 100.00%
CPXPARAM_MIP_Cuts_Disjunctive 0
27
Node Left Objective IInf Best_Integer Best_Bound ItCnt Gap
0+ 0 nan nan 94.5045 0.0000 nan 100.00%
0 0 0.0000 27 94.5045 0.0000 91 100.00%
0+ 0 nan nan 38.5485 0.0000 nan 100.00%
0+ 0 nan nan 34.2660 0.0000 nan 100.00%
0+ 0 nan nan 33.2351 0.0000 nan 100.00%
0+ 0 nan nan 23.9818 0.0000 nan 100.00%
0 2 0.0000 17 23.9818 0.0000 91 100.00%
CPXPARAM_MIP_Cuts_Disjunctive 0
28
Node Left Objective IInf Best_Integer Best_Bound ItCnt Gap
0+ 0 nan nan 133.7092 0.0000 nan 100.00%
0+ 0 nan nan 129.6212 0.0000 nan 100.00%
0 0 0.0000 30 129.6212 0.0000 103 100.00%
0 0 0.0000 25 129.6212 Disjcuts:1 113 100.00%
0+ 0 nan nan 120.4832 0.0000 nan 100.00%
0 0 0.0000 26 120.4832 Disjcuts:20 166 100.00%
0 0 0.0000 25 120.4832 Disjcuts:12 211 100.00%
0+ 0 nan nan 110.1816 0.0000 nan 100.00%
0+ 0 nan nan 107.5753 0.0000 nan 100.00%
0 2 0.0000 25 107.5753 0.0000 211 100.00%
CPXPARAM_MIP_Cuts_Disjunctive 3
29
Node Left Objective IInf Best_Integer Best_Bound ItCnt Gap
0+ 0 nan nan 133.7092 0.0000 nan 100.00%
0 0 0.0000 31 133.7092 0.0000 98 100.00%
0+ 0 nan nan 91.3907 0.0000 nan 100.00%
0+ 0 nan nan 76.1263 0.0000 nan 100.00%
0+ 0 nan nan 64.9913 0.0000 nan 100.00%
0+ 0 nan nan 53.4166 0.0000 nan 100.00%
0 2 0.0000 19 53.4166 0.0000 98 100.00%
CPXPARAM_MIP_Cuts_Disjunctive 0
30
Node Left Objective IInf Best_Integer Best_Bound ItCnt Gap
0+ 0 nan nan 133.7092 0.0000 nan 100.00%
0+ 0 nan nan 114.7297 0.0000 nan 100.00%
0 0 0.0000 25 114.7297 0.0000 108 100.00%
0+ 0 nan nan 107.8528 0.0000 nan 100.00%
0 0 0.0000 21 107.8528 Disjcuts:1 118 100.00%
0+ 0 nan nan 97.0646 0.0000 nan 100.00%
0 0 0.0000 23 97.0646 Disjcuts:16 152 100.00%
0 0 0.0000 23 97.0646 Disjcuts:13 200 100.00%
0+ 0 nan nan 94.8245 0.0000 nan 100.00%
0+ 0 nan nan 83.6209 0.0000 nan 100.00%
0 2 0.0000 23 83.6209 0.0000 200 100.00%
CPXPARAM_MIP_Cuts_Disjunctive 6
31
Node Left Objective IInf Best_Integer Best_Bound ItCnt Gap
0+ 0 nan nan 133.7092 0.0000 nan 100.00%
0 0 0.0000 29 133.7092 0.0000 94 100.00%
0+ 0 nan nan 87.7465 0.0000 nan 100.00%
0+ 0 nan nan 75.9944 0.0000 nan 100.00%
0+ 0 nan nan 73.9499 0.0000 nan 100.00%
0+ 0 nan nan 72.0403 0.0000 nan 100.00%
0+ 0 nan nan 46.0708 0.0000 nan 100.00%
0 2 0.0000 14 46.0708 0.0000 94 100.00%
CPXPARAM_MIP_Cuts_Disjunctive 0
32
Node Left Objective IInf Best_Integer Best_Bound ItCnt Gap
0+ 0 nan nan 110.7059 0.0000 nan 100.00%
0+ 0 nan nan 93.8685 0.0000 nan 100.00%
0 0 0.0000 27 93.8685 0.0000 111 100.00%
0 0 0.0000 27 93.8685 Disjcuts:8 121 100.00%
0 0 0.0000 27 93.8685 Disjcuts:3 130 100.00%
0+ 0 nan nan 84.6967 0.0000 nan 100.00%
0+ 0 nan nan 74.3740 0.0000 nan 100.00%
0 2 0.0000 26 74.3740 0.0000 130 100.00%
CPXPARAM_MIP_Cuts_Disjunctive 1
33
Node Left Objective IInf Best_Integer Best_Bound ItCnt Gap
0+ 0 nan nan 110.7059 0.0000 nan 100.00%
0+ 0 nan nan 93.8685 0.0000 nan 100.00%
0 0 0.0000 31 93.8685 0.0000 108 100.00%
0+ 0 nan nan 60.1525 0.0000 nan 100.00%
0+ 0 nan nan 56.1444 0.0000 nan 100.00%
0+ 0 nan nan 55.4236 0.0000 nan 100.00%
0+ 0 nan nan 42.9716 0.0000 nan 100.00%
0+ 0 nan nan 36.6204 0.0000 nan 100.00%
0 2 0.0000 19 36.6204 0.0000 108 100.00%
CPXPARAM_MIP_Cuts_Disjunctive 0
34
Node Left Objective IInf Best_Integer Best_Bound ItCnt Gap
0+ 0 nan nan 110.7059 0.0000 nan 100.00%
0+ 0 nan nan 74.9711 0.0000 nan 100.00%
0 0 0.0000 23 74.9711 0.0000 113 100.00%
0+ 0 nan nan 70.5384 0.0000 nan 100.00%
0 0 0.0000 22 70.5384 Disjcuts:5 122 100.00%
0+ 0 nan nan 70.5321 0.0000 nan 100.00%
0 0 0.0000 22 70.5321 Disjcuts:9 151 100.00%
0 0 0.0000 22 70.5321 Disjcuts:8 179 100.00%
0+ 0 nan nan 61.2386 0.0000 nan 100.00%
0+ 0 nan nan 57.5090 0.0000 nan 100.00%
0+ 0 nan nan 50.6251 0.0000 nan 100.00%
0 2 0.0000 22 50.6251 0.0000 179 100.00%
CPXPARAM_MIP_Cuts_Disjunctive 8
35
Node Left Objective IInf Best_Integer Best_Bound ItCnt Gap
0+ 0 nan nan 110.7059 0.0000 nan 100.00%
0 0 0.0000 28 110.7059 0.0000 90 100.00%
0+ 0 nan nan 41.4039 0.0000 nan 100.00%
0+ 0 nan nan 40.3828 0.0000 nan 100.00%
0+ 0 nan nan 36.6174 0.0000 nan 100.00%
0+ 0 nan nan 28.5605 0.0000 nan 100.00%
0 2 0.0000 14 28.5605 0.0000 90 100.00%
CPXPARAM_MIP_Cuts_Disjunctive 0
36
Node Left Objective IInf Best_Integer Best_Bound ItCnt Gap
0+ 0 nan nan 123.7135 0.0000 nan 100.00%
0+ 0 nan nan 108.6148 0.0000 nan 100.00%
0 0 0.0000 28 108.6148 0.0000 112 100.00%
0+ 0 nan nan 100.1659 0.0000 nan 100.00%
0 0 0.0000 26 100.1659 Disjcuts:5 120 100.00%
0+ 0 nan nan 87.5594 0.0000 nan 100.00%
0 0 0.0000 27 87.5594 Disjcuts:18 143 100.00%
0 0 0.0000 25 87.5594 Disjcuts:2 151 100.00%
0+ 0 nan nan 80.2088 0.0000 nan 100.00%
0+ 0 nan nan 72.7675 0.0000 nan 100.00%
0+ 0 nan nan 69.1993 0.0000 nan 100.00%
0 2 0.0000 25 69.1993 0.0000 151 100.00%
CPXPARAM_MIP_Cuts_Disjunctive 4
37
Node Left Objective IInf Best_Integer Best_Bound ItCnt Gap
0+ 0 nan nan 123.7135 0.0000 nan 100.00%
0+ 0 nan nan 108.6148 0.0000 nan 100.00%
0 0 0.0000 31 108.6148 0.0000 99 100.00%
0+ 0 nan nan 72.9404 0.0000 nan 100.00%
0+ 0 nan nan 61.5920 0.0000 nan 100.00%
0+ 0 nan nan 50.5347 0.0000 nan 100.00%
0 2 0.0000 18 50.5347 0.0000 99 100.00%
CPXPARAM_MIP_Cuts_Disjunctive 0
38
Node Left Objective IInf Best_Integer Best_Bound ItCnt Gap
0+ 0 nan nan 123.7135 0.0000 nan 100.00%
0+ 0 nan nan 89.1896 0.0000 nan 100.00%
0 0 0.0000 23 89.1896 0.0000 103 100.00%
0+ 0 nan nan 81.0501 0.0000 nan 100.00%
0 0 0.0000 22 81.0501 Disjcuts:1 104 100.00%
0 0 0.0000 25 81.0501 Disjcuts:16 158 100.00%
0 0 0.0000 23 81.0501 Disjcuts:9 195 100.00%
0+ 0 nan nan 77.2130 0.0000 nan 100.00%
0+ 0 nan nan 68.6873 0.0000 nan 100.00%
0+ 0 nan nan 54.3013 0.0000 nan 100.00%
0 2 0.0000 20 54.3013 0.0000 195 100.00%
CPXPARAM_MIP_Cuts_Disjunctive 4
39
Node Left Objective IInf Best_Integer Best_Bound ItCnt Gap
0+ 0 nan nan 123.7135 0.0000 nan 100.00%
0 0 0.0000 29 123.7135 0.0000 93 100.00%
0+ 0 nan nan 73.9869 0.0000 nan 100.00%
0 0 0.0000 18 73.9869 Disjcuts:1 94 100.00%
0+ 0 nan nan 67.4316 0.0000 nan 100.00%
0 0 0.0000 17 67.4316 Disjcuts:13 131 100.00%
0+ 0 nan nan 56.7960 0.0000 nan 100.00%
0 0 0.0000 16 56.7960 Disjcuts:1 136 100.00%
0+ 0 nan nan 47.7903 0.0000 nan 100.00%
0 2 0.0000 16 47.7903 0.0000 136 100.00%
CPXPARAM_MIP_Cuts_Disjunctive 2
